
Gurobi 9.1.2 (win64, Java) logging started Sat Nov  6 21:16:49 2021

Academic license - for non-commercial use only - expires 2022-10-30
Gurobi Optimizer version 9.1.2 build v9.1.2rc0 (win64)
Thread count: 6 physical cores, 12 logical processors, using up to 12 threads
Optimize a model with 40 rows, 400 columns and 800 nonzeros
Model fingerprint: 0x19fa8a95
Variable types: 0 continuous, 400 integer (400 binary)
Coefficient statistics:
  Matrix range     [1e+00, 1e+03]
  Objective range  [5e+02, 1e+03]
  Bounds range     [1e+00, 1e+00]
  RHS range        [1e+00, 5e+02]
Found heuristic solution: objective 4891.0000000
Presolve removed 22 rows and 343 columns
Presolve time: 0.02s
Presolved: 18 rows, 57 columns, 114 nonzeros
Variable types: 0 continuous, 57 integer (57 binary)
Presolved: 18 rows, 57 columns, 114 nonzeros


Root relaxation: objective 5.715000e+03, 8 iterations, 0.00 seconds

    Nodes    |    Current Node    |     Objective Bounds      |     Work
 Expl Unexpl |  Obj  Depth IntInf | Incumbent    BestBd   Gap | It/Node Time

*    0     0               0    5715.0000000 5715.00000  0.00%     -    0s

Explored 0 nodes (8 simplex iterations) in 0.05 seconds
Thread count was 12 (of 12 available processors)

Solution count 2: 5715 4891 

Optimal solution found (tolerance 1.00e-04)
Best objective 5.715000000000e+03, best bound 5.715000000000e+03, gap 0.0000%
